 &CONTROL
                 calculation = 'scf' ,
                restart_mode = 'from_scratch' ,
                      outdir = './' ,
                  pseudo_dir = './' ,
                      prefix = 'Al' ,
                   verbosity = 'low' ,
 /
 &SYSTEM
                       ibrav = 2,
                   celldm(1) = 7.63,
                         nat = 1,
                        ntyp = 1,
                     ecutwfc = 60 ,
		 occupations = 'smearing' ,
		    smearing = 'gaussian' ,
		     degauss = 0.003
 /
 &ELECTRONS
                    conv_thr = 1d-07 ,
                 mixing_mode = 'plain' ,
                 mixing_beta = 0.7 ,
             diagonalization = 'david' ,
 /
ATOMIC_SPECIES
   Al  26.9815385   Al.pbe-n-kjpaw_psl.0.1.UPF
ATOMIC_POSITIONS alat
   Al      0.000000000    0.000000000    0.000000000
K_POINTS automatic
  09 09 09 0 0 0
