 &CONTROL
                 calculation = 'scf' ,
                restart_mode = 'from_scratch' ,
                      outdir = './' ,
                  pseudo_dir = './' ,
                      prefix = 'graphene' ,
 /
 &SYSTEM
                       ibrav = 0,
                   celldm(1) = 4.65,
                         nat = 2,
                        ntyp = 1,
                     ecutwfc = 95 ,
                     ecutrho = 560.0 ,
                        nbnd = 8,
                 occupations = 'smearing' ,
                     degauss = 0.001 ,
 /
 &ELECTRONS
            electron_maxstep = 100,
                    conv_thr = 1.0d-8 ,
                 mixing_mode = 'plain' ,
                 mixing_beta = 0.7 ,
             diagonalization = 'david' ,
 /
CELL_PARAMETERS alat
     1.000000000    0.000000000    0.000000000
     0.500000000    0.866025400    0.000000000
     0.000000000    0.000000000   12.000000000
ATOMIC_SPECIES
    C   12.00000  C.pbe-rrkjus.UPF
ATOMIC_POSITIONS alat
    C      0.000000000    0.000000000    0.000000000
    C      1.000000000    0.577350300    0.000000000
K_POINTS automatic
  09 09 1   0 0 0

