 &CONTROL
                 calculation = 'scf' ,
                restart_mode = 'from_scratch' ,
                      outdir = './' ,
                  pseudo_dir = './' ,
                      prefix = 'Cu' ,
                   verbosity = 'low' ,
 /
 &SYSTEM
                       ibrav = 2,
                   celldm(1) = 10.20,
                         nat = 2,
                        ntyp = 1,
                     ecutwfc = 50 ,
		 occupations = 'smearing' ,
		    smearing = 'gaussian' ,
		     degauss = 0.003
 /
 &ELECTRONS
                    conv_thr = 1d-07 ,
                 mixing_mode = 'plain' ,
                 mixing_beta = 0.7 ,
             diagonalization = 'david' ,
 /
ATOMIC_SPECIES
   Cu   63.54600  Cu.pbe.UPF
ATOMIC_POSITIONS alat
   Cu      0.000000000    0.000000000    0.000000000
   Cu      0.250000000    0.250000000    0.250000000
K_POINTS automatic
  13 13 13 0 0 0
