&CONTROL
                 calculation = 'bands' ,
                restart_mode = 'from_scratch' ,
                      outdir = './' ,
                  pseudo_dir = './' ,
                      prefix = 'Cu' ,
                   verbosity = 'low' ,
 /
 &SYSTEM
                       ibrav = 2,
                   celldm(1) = 10.20,
                         nat = 2,
                        ntyp = 1,
                     ecutwfc = 70 ,
                 occupations = 'smearing' ,
                    smearing = 'gaussian' ,
                     degauss = 0.003 ,
 /
 &ELECTRONS
                    conv_thr = 1d-08 ,
                 mixing_mode = 'plain' ,
                 mixing_beta = 0.7 ,
             diagonalization = 'david' ,
 /
ATOMIC_SPECIES
   Cu   63.54600  Cu.pbe.UPF
ATOMIC_POSITIONS alat
   Cu      0.000000000    0.000000000    0.000000000
   Cu      0.250000000    0.250000000    0.250000000
K_POINTS
 81 
     0.00000    0.00000    0.00000  0.1
     0.00000    0.05000    0.00000  0.1
     0.00000    0.10000    0.00000  0.1
     0.00000    0.15000    0.00000  0.1
     0.00000    0.20000    0.00000  0.1
     0.00000    0.25000    0.00000  0.1
     0.00000    0.30000    0.00000  0.1
     0.00000    0.35000    0.00000  0.1
     0.00000    0.40000    0.00000  0.1
     0.00000    0.45000    0.00000  0.1
     0.00000    0.50000    0.00000  0.1
     0.00000    0.55000    0.00000  0.1
     0.00000    0.60000    0.00000  0.1
     0.00000    0.65000    0.00000  0.1
     0.00000    0.70000    0.00000  0.1
     0.00000    0.75000    0.00000  0.1
     0.00000    0.80000    0.00000  0.1
     0.00000    0.85000    0.00000  0.1
     0.00000    0.90000    0.00000  0.1
     0.00000    0.95000    0.00000  0.1
     0.00000    1.00000    0.00000  0.1
     0.03750    0.98750    0.00000  0.1
     0.07500    0.97500    0.00000  0.1
     0.11250    0.96250    0.00000  0.1
     0.15000    0.95000    0.00000  0.1
     0.18750    0.93750    0.00000  0.1
     0.22500    0.92500    0.00000  0.1
     0.26250    0.91250    0.00000  0.1
     0.30000    0.90000    0.00000  0.1
     0.33750    0.88750    0.00000  0.1
     0.37500    0.87500    0.00000  0.1
     0.41250    0.86250    0.00000  0.1
     0.45000    0.85000    0.00000  0.1
     0.48750    0.83750    0.00000  0.1
     0.52500    0.82500    0.00000  0.1
     0.56250    0.81250    0.00000  0.1
     0.60000    0.80000    0.00000  0.1
     0.63750    0.78750    0.00000  0.1
     0.67500    0.77500    0.00000  0.1
     0.71250    0.76250    0.00000  0.1
     0.75000    0.75000    0.00000  0.1
     0.71250    0.71250    0.00000  0.1
     0.67500    0.67500    0.00000  0.1
     0.63750    0.63750    0.00000  0.1
     0.60000    0.60000    0.00000  0.1
     0.56250    0.56250    0.00000  0.1
     0.52500    0.52500    0.00000  0.1
     0.48750    0.48750    0.00000  0.1
     0.45000    0.45000    0.00000  0.1
     0.41250    0.41250    0.00000  0.1
     0.37500    0.37500    0.00000  0.1
     0.33750    0.33750    0.00000  0.1
     0.30000    0.30000    0.00000  0.1
     0.26250    0.26250    0.00000  0.1
     0.22500    0.22500    0.00000  0.1
     0.18750    0.18750    0.00000  0.1
     0.15000    0.15000    0.00000  0.1
     0.11250    0.11250    0.00000  0.1
     0.07500    0.07500    0.00000  0.1
     0.03750    0.03750    0.00000  0.1
     0.00000    0.00000    0.00000  0.1
     0.02500    0.02500    0.02500  0.1
     0.05000    0.05000    0.05000  0.1
     0.07500    0.07500    0.07500  0.1
     0.10000    0.10000    0.10000  0.1
     0.12500    0.12500    0.12500  0.1
     0.15000    0.15000    0.15000  0.1
     0.17500    0.17500    0.17500  0.1
     0.20000    0.20000    0.20000  0.1
     0.22500    0.22500    0.22500  0.1
     0.25000    0.25000    0.25000  0.1
     0.27500    0.27500    0.27500  0.1
     0.30000    0.30000    0.30000  0.1
     0.32500    0.32500    0.32500  0.1
     0.35000    0.35000    0.35000  0.1
     0.37500    0.37500    0.37500  0.1
     0.40000    0.40000    0.40000  0.1
     0.42500    0.42500    0.42500  0.1
     0.45000    0.45000    0.45000  0.1
     0.47500    0.47500    0.47500  0.1
     0.50000    0.50000    0.50000  0.1
